p td 113 371
1 2
1 39
1 40
1 41
1 15
1 16
1 58
2 39
2 40
2 41
2 15
2 16
2 58
3 67
3 4
3 45
3 18
3 19
3 55
4 67
4 45
4 18
4 19
4 55
5 22
5 6
5 21
5 54
5 29
5 30
6 54
6 21
6 22
6 29
6 30
7 8
7 9
7 10
7 11
7 14
7 17
7 20
8 9
8 10
8 11
8 14
8 17
8 20
9 10
9 11
9 14
9 17
9 20
10 11
10 14
10 17
10 20
11 14
11 17
11 20
12 71
12 72
12 73
12 75
12 76
12 13
13 71
13 72
13 75
13 76
13 73
14 17
14 20
15 39
15 40
15 41
15 16
15 58
16 39
16 40
16 41
16 58
17 20
18 19
18 45
18 67
18 55
19 45
19 67
19 55
21 22
21 54
21 29
21 30
22 54
22 29
22 30
23 44
23 109
23 110
23 111
23 112
23 113
23 24
24 44
24 109
24 110
24 111
24 112
24 113
25 33
25 34
25 70
25 26
25 27
25 28
26 33
26 34
26 70
26 27
26 28
27 33
27 34
27 70
27 28
28 33
28 34
28 70
29 54
29 30
30 54
31 32
31 96
31 101
31 102
31 83
31 84
31 89
32 96
32 101
32 102
32 83
32 84
32 89
33 34
33 70
34 70
35 36
35 46
35 47
35 80
35 82
35 88
36 46
36 47
36 80
36 82
36 88
37 38
37 42
37 43
37 48
37 49
37 52
37 53
38 42
38 43
38 48
38 49
38 52
38 53
39 40
39 41
39 58
40 41
40 58
41 58
42 43
42 48
42 49
42 52
42 53
43 48
43 49
43 52
43 53
44 109
44 110
44 111
44 112
44 113
45 67
45 55
46 47
46 80
46 82
46 88
47 80
47 82
47 88
48 49
48 52
48 53
49 52
49 53
50 59
50 106
50 51
50 90
50 91
50 92
50 93
51 59
51 106
51 90
51 91
51 92
51 93
52 53
55 67
56 64
56 78
56 79
56 57
56 60
56 61
57 64
57 78
57 79
57 60
57 61
59 106
59 90
59 91
59 92
59 93
60 64
60 78
60 79
60 61
61 64
61 78
61 79
62 65
62 66
62 104
62 85
62 87
62 63
63 65
63 66
63 104
63 85
63 87
64 78
64 79
65 66
65 104
65 85
65 87
66 104
66 85
66 87
68 97
68 100
68 69
68 74
68 77
68 81
68 86
69 97
69 74
69 77
69 81
69 86
69 100
71 72
71 75
71 76
71 73
72 73
72 75
72 76
73 76
73 75
74 97
74 77
74 81
74 86
74 100
75 76
77 97
77 81
77 86
77 100
78 79
80 82
80 88
81 97
81 86
81 100
82 88
83 96
83 101
83 102
83 84
83 89
84 96
84 101
84 102
84 89
85 104
85 87
86 97
86 100
87 104
89 96
89 101
89 102
90 106
90 91
90 92
90 93
91 106
91 92
91 93
92 106
92 93
93 106
94 98
94 99
94 103
94 105
94 107
94 108
94 95
95 98
95 99
95 103
95 105
95 107
95 108
96 101
96 102
97 100
98 99
98 103
98 105
98 107
98 108
99 103
99 105
99 107
99 108
101 102
103 105
103 107
103 108
105 107
105 108
107 108
109 110
109 111
109 112
109 113
110 111
110 112
110 113
111 112
111 113
112 113
